NAME : XML100_1364_11
DIMENSION : 101
NB_CLUSTERS : 5
CLUSTERING_ALG : KMedoids
CLUSTERING_PARAMS : k(4)
CLUSTERS
1 0
2 2 3 5 13 16 18 23 27 30 44 48 55 60 67 69 70 75 77 78 86
3 4 6 12 14 15 17 19 26 31 39 40 41 43 47 50 52 58 64 68 72 73 74 76 81 82 85 88 93 99
4 1 8 9 10 20 21 24 25 29 32 36 37 38 46 49 51 54 57 59 62 65 79 80 84 87 90 91 92 94 96 100
5 7 11 22 28 33 34 35 42 45 53 56 61 63 66 71 83 89 95 97 98
EOF